NAME : R209.909158.tour
COMMENT : Cost = 0_909158
COMMENT : Found by LKH [Keld Helsgaun] Thu Sep 14 00:51:13 2017
TYPE : TOUR
DIMENSION : 103
TOUR_SECTION
1
53
84
6
60
99
93
96
3
43
15
45
39
87
17
62
86
94
100
7
95
88
58
16
44
42
23
75
57
5
27
55
56
26
25
81
69
78
2
103
29
77
13
30
40
68
24
76
73
74
22
41
54
19
8
63
65
50
37
47
9
46
18
85
97
38
101
92
98
14
59
102
28
70
32
89
83
48
20
12
64
91
71
31
72
10
52
82
34
51
4
80
79
35
36
66
67
21
33
11
49
61
90
-1
EOF
